
Gurobi 6.0.4 (win64) logging started 06/20/15 12:11:10

Read LP format model from file C:\MT\repository\VRPTWMS\instances\mip\fuel\N8-C_DV100-C_SV30_F6_12_No_1.lp
Reading time = 0.01 seconds
(null): 417 rows, 200 columns, 1659 nonzeros
Optimize a model with 417 rows, 200 columns and 1659 nonzeros
Model has 512 quadratic constraints
Coefficient statistics:
  Matrix range    [1e+00, 1e+06]
  Objective range [5e+04, 1e+07]
  Bounds range    [1e+00, 1e+06]
  RHS range       [1e+00, 1e+06]
Presolve removed 56 rows and 24 columns
Presolve time: 0.23s
Presolved: 1097 rows, 544 columns, 5908 nonzeros
Variable types: 368 continuous, 176 integer (142 binary)
Found heuristic solution: objective 8.244940e+07

Root relaxation: objective 3.139856e+06, 115 iterations, 0.00 seconds

    Nodes    |    Current Node    |     Objective Bounds      |     Work
 Expl Unexpl |  Obj  Depth IntInf | Incumbent    BestBd   Gap | It/Node Time

     0     0 3139856.42    0   41 8.2449e+07 3139856.42  96.2%     -    0s
H    0     0                    6.218170e+07 3139856.42  95.0%     -    0s
     0     0 6693827.45    0   33 6.2182e+07 6693827.45  89.2%     -    0s
H    0     0                    5.243300e+07 6693827.45  87.2%     -    0s
H    0     0                    4.199710e+07 6693827.45  84.1%     -    0s
     0     0 1.1572e+07    0   14 4.1997e+07 1.1572e+07  72.4%     -    0s
H    0     0                    3.206560e+07 1.1572e+07  63.9%     -    0s
H    0     0                    2.158240e+07 1.1572e+07  46.4%     -    0s
     0     0 1.1602e+07    0   15 2.1582e+07 1.1602e+07  46.2%     -    0s
     0     0 1.1602e+07    0   10 2.1582e+07 1.1602e+07  46.2%     -    0s
     0     0 1.1602e+07    0   39 2.1582e+07 1.1602e+07  46.2%     -    0s
     0     0 1.1673e+07    0   33 2.1582e+07 1.1673e+07  45.9%     -    0s
     0     0 1.1808e+07    0   54 2.1582e+07 1.1808e+07  45.3%     -    0s
     0     0 1.3652e+07    0   43 2.1582e+07 1.3652e+07  36.7%     -    0s
     0     0 1.3731e+07    0   30 2.1582e+07 1.3731e+07  36.4%     -    0s
     0     0 1.3731e+07    0   30 2.1582e+07 1.3731e+07  36.4%     -    0s
     0     0 1.4380e+07    0   31 2.1582e+07 1.4380e+07  33.4%     -    0s
     0     0 1.4380e+07    0   30 2.1582e+07 1.4380e+07  33.4%     -    0s
     0     2 1.4380e+07    0   30 2.1582e+07 1.4380e+07  33.4%     -    0s
*   21     0               7    2.157850e+07 2.1572e+07  0.03%  11.6    0s
*   22     0               7    2.157220e+07 2.1572e+07  0.00%  11.8    0s

Cutting planes:
  Learned: 1
  Gomory: 1
  Implied bound: 7
  Clique: 3
  MIR: 4
  GUB cover: 5

Explored 23 nodes (869 simplex iterations) in 0.56 seconds
Thread count was 2 (of 4 available processors)

Optimal solution found (tolerance 1.00e-04)
Best objective 2.157220000000e+07, best bound 2.157220000000e+07, gap 0.0%
k_c1	50000.0
k_c2	910000.0
k_c3	159999.99999999988
k_c4	1000000.0
k_c5	940000.0
k_c6	860000.0
k_c7	119999.99999999988
k_c8	90000.0
k_dN	-0.0
o_1	0.0
o_2	-0.0
o_3	-0.0
o_4	-0.0
o_5	-0.0
o_6	-0.0
o_7	-0.0
o_8	-0.0
p_1	0.0
p_2	0.0
p_3	0.0
p_4	-0.0
p_5	0.0
p_6	0.0
p_7	-0.0
p_8	-0.0
phi_c1	8142.0
phi_c2	13457.0
phi_c3	48788.0
phi_c4	40832.999999999985
phi_c5	25740.0
phi_c6	3412.0
phi_c7	34057.0
phi_c8	16525.0
phi_d0	60000.0
phi_dN	-0.0
tauD_c1	700000.0
tauD_c2	850000.0
tauD_c3	300000.0
tauD_c4	600000.0
tauD_c5	744100.0
tauD_c6	943050.0
tauD_c7	400000.00000000006
tauD_c8	600000.0
tauD_d0	-0.0
tauD_dN	1000000.0
tauS_c1	95650.0
tauS_c2	86100.0
tauS_c3	108125.0
tauS_c4	125550.0
tauS_c5	88550.0
tauS_c6	23050.0
tauS_c7	130600.0
tauS_c8	109750.0
tauS_d0	-0.0
tauS_dN	75800.0
x_c1_dN	1.0
x_c2_c6	1.0
x_c3_c7	1.0
x_c4_c5	1.0
x_c5_c2	1.0
x_c6_dN	1.0
x_c7_c8	1.0
x_c8_c1	1.0
x_d0_c3	1.0
x_d0_c4	1.0
